(declare-const p29 Real)
(declare-const special Real)
(declare-const p20_5 Real)
(declare-const p26 Real)
(declare-const p33 Real)
(declare-const final_tax Real)
(declare-const sin Real)
(declare-const income Real)
(declare-const p14_5 Real)
(assert (= p14_5 (* 0.145 (ite (> income 57375) 57375 income))))
(assert (= p20_5 (ite (> income 57375) (* 0.205 (- (ite (> income 114750) 114750 income) 57375)) 0)))
(assert (= p26 (ite (> income 114750) (* 0.26 (- (ite (> income 177882) 177882 income) 114750)) 0)))
(assert (= p29 (ite (> income 177882) (* 0.29 (- (ite (> income 253414) 253414 income) 177882)) 0)))
(assert (= p33 (ite (> income 253414) (* 0.33 (- income 253414)) 0)))
(assert (= special (ite (< sin 9000000000) 1 0)))
(assert (= final_tax (* special (+ (+ (+ (+ p14_5 p20_5) p26) p29) p33))))